c colouring generated by benchmark framework
p edge 437 8504
v 1 9
v 2 6
v 3 11
v 4 2
v 5 3
v 6 9
v 7 0
v 8 3
v 9 4
v 10 1
v 11 2
v 12 6
v 13 11
v 14 10
v 15 6
v 16 1
v 17 3
v 18 7
v 19 0
v 20 1
v 21 4
v 22 7
v 23 0
v 24 3
v 25 7
v 26 6
v 27 0
v 28 8
v 29 8
v 30 1
v 31 6
v 32 4
v 33 0
v 34 9
v 35 7
v 36 5
v 37 1
v 38 4
v 39 10
v 40 5
v 41 9
v 42 7
v 43 2
v 44 9
v 45 3
v 46 10
v 47 6
v 48 1
v 49 9
v 50 3
v 51 0
v 52 6
v 53 11
v 54 4
v 55 11
v 56 6
v 57 10
v 58 2
v 59 1
v 60 2
v 61 10
v 62 10
v 63 1
v 64 5
v 65 0
v 66 3
v 67 4
v 68 4
v 69 11
v 70 9
v 71 3
v 72 4
v 73 5
v 74 6
v 75 8
v 76 0
v 77 6
v 78 5
v 79 6
v 80 0
v 81 0
v 82 4
v 83 4
v 84 6
v 85 10
v 86 4
v 87 0
v 88 2
v 89 2
v 90 2
v 91 4
v 92 5
v 93 0
v 94 2
v 95 0
v 96 8
v 97 3
v 98 5
v 99 2
v 100 3
v 101 9
v 102 8
v 103 8
v 104 4
v 105 2
v 106 6
v 107 6
v 108 3
v 109 4
v 110 9
v 111 8
v 112 1
v 113 3
v 114 7
v 115 11
v 116 6
v 117 10
v 118 12
v 119 0
v 120 2
v 121 9
v 122 6
v 123 0
v 124 6
v 125 3
v 126 3
v 127 11
v 128 4
v 129 7
v 130 4
v 131 10
v 132 4
v 133 6
v 134 4
v 135 10
v 136 11
v 137 6
v 138 0
v 139 11
v 140 5
v 141 2
v 142 3
v 143 11
v 144 6
v 145 8
v 146 5
v 147 5
v 148 7
v 149 7
v 150 0
v 151 1
v 152 6
v 153 4
v 154 6
v 155 7
v 156 4
v 157 0
v 158 0
v 159 9
v 160 7
v 161 0
v 162 2
v 163 4
v 164 4
v 165 4
v 166 3
v 167 9
v 168 2
v 169 8
v 170 5
v 171 3
v 172 5
v 173 7
v 174 1
v 175 11
v 176 5
v 177 12
v 178 3
v 179 2
v 180 0
v 181 8
v 182 10
v 183 9
v 184 6
v 185 2
v 186 8
v 187 8
v 188 4
v 189 2
v 190 7
v 191 11
v 192 1
v 193 0
v 194 1
v 195 1
v 196 12
v 197 5
v 198 8
v 199 6
v 200 0
v 201 9
v 202 3
v 203 6
v 204 9
v 205 5
v 206 6
v 207 10
v 208 5
v 209 0
v 210 10
v 211 0
v 212 3
v 213 1
v 214 2
v 215 10
v 216 7
v 217 0
v 218 2
v 219 1
v 220 8
v 221 9
v 222 3
v 223 11
v 224 4
v 225 4
v 226 8
v 227 4
v 228 7
v 229 0
v 230 1
v 231 8
v 232 3
v 233 11
v 234 8
v 235 3
v 236 7
v 237 1
v 238 6
v 239 6
v 240 5
v 241 3
v 242 1
v 243 0
v 244 6
v 245 3
v 246 5
v 247 11
v 248 7
v 249 1
v 250 9
v 251 2
v 252 1
v 253 4
v 254 8
v 255 5
v 256 2
v 257 11
v 258 2
v 259 9
v 260 0
v 261 6
v 262 5
v 263 1
v 264 7
v 265 4
v 266 8
v 267 4
v 268 4
v 269 7
v 270 6
v 271 1
v 272 7
v 273 3
v 274 8
v 275 4
v 276 1
v 277 1
v 278 9
v 279 2
v 280 3
v 281 10
v 282 7
v 283 2
v 284 5
v 285 9
v 286 8
v 287 10
v 288 2
v 289 0
v 290 1
v 291 10
v 292 0
v 293 6
v 294 3
v 295 5
v 296 10
v 297 2
v 298 5
v 299 7
v 300 7
v 301 6
v 302 3
v 303 11
v 304 9
v 305 2
v 306 5
v 307 3
v 308 5
v 309 2
v 310 3
v 311 9
v 312 2
v 313 8
v 314 8
v 315 6
v 316 7
v 317 5
v 318 6
v 319 5
v 320 5
v 321 4
v 322 11
v 323 3
v 324 7
v 325 8
v 326 10
v 327 2
v 328 8
v 329 2
v 330 12
v 331 10
v 332 4
v 333 11
v 334 12
v 335 1
v 336 7
v 337 0
v 338 11
v 339 10
v 340 1
v 341 12
v 342 5
v 343 9
v 344 9
v 345 3
v 346 10
v 347 3
v 348 8
v 349 7
v 350 4
v 351 2
v 352 1
v 353 1
v 354 8
v 355 2
v 356 11
v 357 5
v 358 0
v 359 1
v 360 9
v 361 4
v 362 7
v 363 0
v 364 4
v 365 2
v 366 3
v 367 8
v 368 1
v 369 2
v 370 2
v 371 3
v 372 5
v 373 5
v 374 11
v 375 1
v 376 8
v 377 10
v 378 10
v 379 7
v 380 6
v 381 10
v 382 5
v 383 8
v 384 5
v 385 7
v 386 8
v 387 8
v 388 9
v 389 3
v 390 0
v 391 6
v 392 9
v 393 2
v 394 9
v 395 6
v 396 6
v 397 2
v 398 2
v 399 10
v 400 4
v 401 0
v 402 9
v 403 10
v 404 3
v 405 0
v 406 2
v 407 6
v 408 0
v 409 10
v 410 4
v 411 8
v 412 10
v 413 12
v 414 4
v 415 4
v 416 9
v 417 0
v 418 0
v 419 9
v 420 11
v 421 11
v 422 0
v 423 3
v 424 6
v 425 12
v 426 0
v 427 1
v 428 9
v 429 8
v 430 5
v 431 9
v 432 9
v 433 1
v 434 8
v 435 9
v 436 5
v 437 12
